n_res = 4;
rc = [ 23, 25, 25, 32 ];
n_tasks = 30;
d = [ 6, 4, 5, 6, 1, 10, 3, 7, 7, 8, 4, 1, 10, 3, 2, 6, 8, 5, 4, 5, 3, 4, 3, 6, 8, 9, 7, 10, 10, 9 ];
rr = [| 23, 23, 23, 23, 23, 23, 23, 23, 23, 23, 23, 23, 23, 23, 23, 23, 23, 23, 23, 23, 23, 23, 23, 23, 23, 23, 23, 23, 23, 23
      | 25, 25, 25, 25, 25, 25, 25, 25, 25, 25, 25, 25, 25, 25, 25, 25, 25, 25, 25, 25, 25, 25, 25, 25, 25, 25, 25, 25, 25, 25
      | 25, 25, 25, 25, 25, 25, 25, 25, 25, 25, 25, 25, 25, 25, 25, 25, 25, 25, 25, 25, 25, 25, 25, 25, 25, 25, 25, 25, 25, 25
      | 32, 32, 32, 32, 32, 32, 32, 32, 32, 32, 32, 32, 32, 32, 32, 32, 32, 32, 32, 32, 32, 32, 32, 32, 32, 32, 32, 32, 32, 32|];
suc = [ { 4 },
       { 5, 10 },
       { 12 },
       { 6, 10, 18 },
       { 9, 23, 30 },
       { 7 },
       { 8, 11 },
       { 12, 24, 26 },
       { 12 },
       { 14, 15 },
       { 16, 25 },
       { 13 },
       { 20 },
       { 19 },
       { 23 },
       { 17, 26 },
       { 27 },
       { 21 },
       { 29 },
       { 22, 27 },
       { 22, 24, 30 },
       { 29 },
       { 27, 28 },
       { 28 },
       { 30 },
       { 28 },
       { 29 },
       {  },
       {  },
       {  } ];
